; Copyright (c) 2026 The RIINA Authors. All rights reserved.
; Auto-generated from 02_FORMAL/coq/domains/SingaporeMTCS.v (32 validations)
; Generated by scripts/generate-full-stack.py
;
; Translation Validation for SingaporeMTCS
; Layer 9: Verifies compiler backend preserves formal semantics.
; Each assertion checks source IR ≡ target code for a proven property.

(set-logic QF_LIA)
(set-option :produce-models true)

; IR node representation
(declare-sort IRNode 0)
(declare-sort TargetNode 0)

; mtcs_level_nat: source semantics (matches Coq)
(declare-fun source_mtcs_level_nat () Bool)
(declare-fun target_mtcs_level_nat () Bool)
(assert (= source_mtcs_level_nat target_mtcs_level_nat))

; mtcs_l1_compliant: source semantics (matches Coq)
(declare-fun source_mtcs_l1_compliant () Bool)
(declare-fun target_mtcs_l1_compliant () Bool)
(assert (= source_mtcs_l1_compliant target_mtcs_l1_compliant))

; mtcs_l2_compliant: source semantics (matches Coq)
(declare-fun source_mtcs_l2_compliant () Bool)
(declare-fun target_mtcs_l2_compliant () Bool)
(assert (= source_mtcs_l2_compliant target_mtcs_l2_compliant))

; mtcs_l3_compliant: source semantics (matches Coq)
(declare-fun source_mtcs_l3_compliant () Bool)
(declare-fun target_mtcs_l3_compliant () Bool)
(assert (= source_mtcs_l3_compliant target_mtcs_l3_compliant))

; im8_level: source semantics (matches Coq)
(declare-fun source_im8_level () Bool)
(declare-fun target_im8_level () Bool)
(assert (= source_im8_level target_im8_level))

; im8_controls_adequate: source semantics (matches Coq)
(declare-fun source_im8_controls_adequate () Bool)
(declare-fun target_im8_controls_adequate () Bool)
(assert (= source_im8_controls_adequate target_im8_controls_adequate))

; im8_assessed: source semantics (matches Coq)
(declare-fun source_im8_assessed () Bool)
(declare-fun target_im8_assessed () Bool)
(assert (= source_im8_assessed target_im8_assessed))

; im8_fully_compliant: source semantics (matches Coq)
(declare-fun source_im8_fully_compliant () Bool)
(declare-fun target_im8_fully_compliant () Bool)
(assert (= source_im8_fully_compliant target_im8_fully_compliant))

; mtcs_min_controls: source semantics (matches Coq)
(declare-fun source_mtcs_min_controls () Bool)
(declare-fun target_mtcs_min_controls () Bool)
(assert (= source_mtcs_min_controls target_mtcs_min_controls))

; gcc_required: source semantics (matches Coq)
(declare-fun source_gcc_required () Bool)
(declare-fun target_gcc_required () Bool)
(assert (= source_gcc_required target_gcc_required))

; im8_to_mtcs_level: source semantics (matches Coq)
(declare-fun source_im8_to_mtcs_level () Bool)
(declare-fun target_im8_to_mtcs_level () Bool)
(assert (= source_im8_to_mtcs_level target_im8_to_mtcs_level))

; integrated_sg_cloud_compliant: source semantics (matches Coq)
(declare-fun source_integrated_sg_cloud_compliant () Bool)
(declare-fun target_integrated_sg_cloud_compliant () Bool)
(assert (= source_integrated_sg_cloud_compliant target_integrated_sg_cloud_compliant))

; mtcs_level_1: translation preserves property (matches Coq: Theorem)
(declare-fun source_mtcs_level_1 () Bool)
(declare-fun target_mtcs_level_1 () Bool)
(assert (= source_mtcs_level_1 target_mtcs_level_1))

; mtcs_level_2: translation preserves property (matches Coq: Theorem)
(declare-fun source_mtcs_level_2 () Bool)
(declare-fun target_mtcs_level_2 () Bool)
(assert (= source_mtcs_level_2 target_mtcs_level_2))

; mtcs_level_3: translation preserves property (matches Coq: Theorem)
(declare-fun source_mtcs_level_3 () Bool)
(declare-fun target_mtcs_level_3 () Bool)
(assert (= source_mtcs_level_3 target_mtcs_level_3))

; mtcs_l3_implies_l2: translation preserves property (matches Coq: Theorem)
(declare-fun source_mtcs_l3_implies_l2 () Bool)
(declare-fun target_mtcs_l3_implies_l2 () Bool)
(assert (= source_mtcs_l3_implies_l2 target_mtcs_l3_implies_l2))

; mtcs_l2_implies_l1: translation preserves property (matches Coq: Theorem)
(declare-fun source_mtcs_l2_implies_l1 () Bool)
(declare-fun target_mtcs_l2_implies_l1 () Bool)
(assert (= source_mtcs_l2_implies_l1 target_mtcs_l2_implies_l1))

; mtcs_l3_implies_l1: translation preserves property (matches Coq: Theorem)
(declare-fun source_mtcs_l3_implies_l1 () Bool)
(declare-fun target_mtcs_l3_implies_l1 () Bool)
(assert (= source_mtcs_l3_implies_l1 target_mtcs_l3_implies_l1))

; im8_official: translation preserves property (matches Coq: Theorem)
(declare-fun source_im8_official () Bool)
(declare-fun target_im8_official () Bool)
(assert (= source_im8_official target_im8_official))

; im8_secret: translation preserves property (matches Coq: Theorem)
(declare-fun source_im8_secret () Bool)
(declare-fun target_im8_secret () Bool)
(assert (= source_im8_secret target_im8_secret))

; im8_assessment: translation preserves property (matches Coq: Theorem)
(declare-fun source_im8_assessment () Bool)
(declare-fun target_im8_assessment () Bool)
(assert (= source_im8_assessment target_im8_assessment))

; im8_composition: translation preserves property (matches Coq: Theorem)
(declare-fun source_im8_composition () Bool)
(declare-fun target_im8_composition () Bool)
(assert (= source_im8_composition target_im8_composition))

; im8_secret_highest: translation preserves property (matches Coq: Theorem)
(declare-fun source_im8_secret_highest () Bool)
(declare-fun target_im8_secret_highest () Bool)
(assert (= source_im8_secret_highest target_im8_secret_highest))

; mtcs_level_coverage: translation preserves property (matches Coq: Theorem)
(declare-fun source_mtcs_level_coverage () Bool)
(declare-fun target_mtcs_level_coverage () Bool)
(assert (= source_mtcs_level_coverage target_mtcs_level_coverage))

; im8_classification_coverage: translation preserves property (matches Coq: Theorem)
(declare-fun source_im8_classification_coverage () Bool)
(declare-fun target_im8_classification_coverage () Bool)
(assert (= source_im8_classification_coverage target_im8_classification_coverage))

; mtcs_level_positive: translation preserves property (matches Coq: Theorem)
(declare-fun source_mtcs_level_positive () Bool)
(declare-fun target_mtcs_level_positive () Bool)
(assert (= source_mtcs_level_positive target_mtcs_level_positive))

; mtcs_level_bounded: translation preserves property (matches Coq: Theorem)
(declare-fun source_mtcs_level_bounded () Bool)
(declare-fun target_mtcs_level_bounded () Bool)
(assert (= source_mtcs_level_bounded target_mtcs_level_bounded))

; mtcs_level_ordering: translation preserves property (matches Coq: Theorem)
(declare-fun source_mtcs_level_ordering () Bool)
(declare-fun target_mtcs_level_ordering () Bool)
(assert (= source_mtcs_level_ordering target_mtcs_level_ordering))

; mtcs_l2_requires_encryption: translation preserves property (matches Coq: Theorem)
(declare-fun source_mtcs_l2_requires_encryption () Bool)
(declare-fun target_mtcs_l2_requires_encryption () Bool)
(assert (= source_mtcs_l2_requires_encryption target_mtcs_l2_requires_encryption))

; mtcs_l3_requires_sovereignty: translation preserves property (matches Coq: Theorem)
(declare-fun source_mtcs_l3_requires_sovereignty () Bool)
(declare-fun target_mtcs_l3_requires_sovereignty () Bool)
(assert (= source_mtcs_l3_requires_sovereignty target_mtcs_l3_requires_sovereignty))

; mtcs_l3_requires_iso27001: translation preserves property (matches Coq: Theorem)
(declare-fun source_mtcs_l3_requires_iso27001 () Bool)
(declare-fun target_mtcs_l3_requires_iso27001 () Bool)
(assert (= source_mtcs_l3_requires_iso27001 target_mtcs_l3_requires_iso27001))

; mtcs_controls_monotonic: translation preserves property (matches Coq: Theorem)
(declare-fun source_mtcs_controls_monotonic () Bool)
(declare-fun target_mtcs_controls_monotonic () Bool)
(assert (= source_mtcs_controls_monotonic target_mtcs_controls_monotonic))

; im8_level_bounded: translation preserves property (matches Coq: Theorem)
(declare-fun source_im8_level_bounded () Bool)
(declare-fun target_im8_level_bounded () Bool)
(assert (= source_im8_level_bounded target_im8_level_bounded))

; im8_official_lowest: translation preserves property (matches Coq: Theorem)
(declare-fun source_im8_official_lowest () Bool)
(declare-fun target_im8_official_lowest () Bool)
(assert (= source_im8_official_lowest target_im8_official_lowest))

; im8_confidential: translation preserves property (matches Coq: Theorem)
(declare-fun source_im8_confidential () Bool)
(declare-fun target_im8_confidential () Bool)
(assert (= source_im8_confidential target_im8_confidential))

; im8_restricted: translation preserves property (matches Coq: Theorem)
(declare-fun source_im8_restricted () Bool)
(declare-fun target_im8_restricted () Bool)
(assert (= source_im8_restricted target_im8_restricted))

; im8_secret_requires_encryption: translation preserves property (matches Coq: Theorem)
(declare-fun source_im8_secret_requires_encryption () Bool)
(declare-fun target_im8_secret_requires_encryption () Bool)
(assert (= source_im8_secret_requires_encryption target_im8_secret_requires_encryption))

; im8_secret_requires_access_control: translation preserves property (matches Coq: Theorem)
(declare-fun source_im8_secret_requires_access_control () Bool)
(declare-fun target_im8_secret_requires_access_control () Bool)
(assert (= source_im8_secret_requires_access_control target_im8_secret_requires_access_control))

; im8_secret_requires_audit: translation preserves property (matches Coq: Theorem)
(declare-fun source_im8_secret_requires_audit () Bool)
(declare-fun target_im8_secret_requires_audit () Bool)
(assert (= source_im8_secret_requires_audit target_im8_secret_requires_audit))

; gcc_required_for_restricted: translation preserves property (matches Coq: Theorem)
(declare-fun source_gcc_required_for_restricted () Bool)
(declare-fun target_gcc_required_for_restricted () Bool)
(assert (= source_gcc_required_for_restricted target_gcc_required_for_restricted))

; im8_secret_maps_to_mtcs3: translation preserves property (matches Coq: Theorem)
(declare-fun source_im8_secret_maps_to_mtcs3 () Bool)
(declare-fun target_im8_secret_maps_to_mtcs3 () Bool)
(assert (= source_im8_secret_maps_to_mtcs3 target_im8_secret_maps_to_mtcs3))

; im8_to_mtcs_monotonic: translation preserves property (matches Coq: Theorem)
(declare-fun source_im8_to_mtcs_monotonic () Bool)
(declare-fun target_im8_to_mtcs_monotonic () Bool)
(assert (= source_im8_to_mtcs_monotonic target_im8_to_mtcs_monotonic))

; integrated_compliance: translation preserves property (matches Coq: Theorem)
(declare-fun source_integrated_compliance () Bool)
(declare-fun target_integrated_compliance () Bool)
(assert (= source_integrated_compliance target_integrated_compliance))

; integrated_implies_encrypted: translation preserves property (matches Coq: Theorem)
(declare-fun source_integrated_implies_encrypted () Bool)
(declare-fun target_integrated_implies_encrypted () Bool)
(assert (= source_integrated_implies_encrypted target_integrated_implies_encrypted))

; Verify all translation validations are satisfiable
(check-sat)
(exit)
